100
2980
4
31
67
72
89
0 1
0 2
0 3
0 8
0 10
0 13
0 14
0 18
0 21
0 23
0 24
0 26
0 27
0 32
0 34
0 35
0 36
0 37
0 38
0 39
0 43
0 44
0 47
0 49
0 50
0 51
0 52
0 53
0 54
0 55
0 58
0 60
0 63
0 65
0 67
0 69
0 71
0 75
0 78
0 79
0 80
0 81
0 82
0 84
0 85
0 88
0 89
0 90
0 92
0 93
1 2
1 4
1 7
1 8
1 11
1 12
1 15
1 17
1 18
1 20
1 21
1 24
1 25
1 29
1 30
1 32
1 33
1 34
1 36
1 39
1 44
1 48
1 49
1 51
1 52
1 53
1 54
1 56
1 58
1 59
1 60
1 62
1 63
1 65
1 66
1 67
1 71
1 72
1 75
1 76
1 77
1 78
1 79
1 81
1 84
1 85
1 87
1 88
1 90
1 92
1 93
1 94
1 96
1 97
1 99
2 3
2 4
2 6
2 7
2 8
2 9
2 10
2 11
2 12
2 15
2 16
2 20
2 21
2 22
2 23
2 24
2 25
2 26
2 27
2 30
2 31
2 32
2 34
2 35
2 37
2 38
2 39
2 40
2 41
2 47
2 48
2 49
2 50
2 52
2 53
2 54
2 55
2 56
2 57
2 58
2 59
2 61
2 62
2 63
2 64
2 65
2 67
2 68
2 70
2 72
2 73
2 74
2 79
2 80
2 81
2 82
2 83
2 84
2 86
2 87
2 89
2 93
2 94
2 95
2 97
3 4
3 5
3 6
3 9
3 12
3 13
3 15
3 16
3 17
3 18
3 19
3 20
3 22
3 23
3 24
3 25
3 26
3 27
3 28
3 29
3 30
3 32
3 33
3 37
3 38
3 39
3 42
3 43
3 44
3 46
3 47
3 49
3 50
3 51
3 52
3 53
3 55
3 58
3 59
3 61
3 63
3 66
3 67
3 69
3 70
3 71
3 74
3 76
3 78
3 80
3 82
3 83
3 84
3 85
3 87
3 88
3 91
3 92
3 93
3 94
3 95
3 96
3 97
4 5
4 6
4 7
4 9
4 10
4 11
4 14
4 17
4 19
4 20
4 25
4 27
4 28
4 29
4 32
4 35
4 36
4 38
4 39
4 40
4 43
4 44
4 47
4 49
4 50
4 52
4 57
4 58
4 59
4 60
4 63
4 64
4 65
4 67
4 68
4 69
4 70
4 72
4 73
4 74
4 75
4 76
4 77
4 78
4 79
4 81
4 82
4 83
4 84
4 86
4 90
4 92
4 97
4 99
5 9
5 12
5 13
5 14
5 16
5 17
5 18
5 19
5 20
5 21
5 22
5 23
5 24
5 25
5 30
5 32
5 33
5 34
5 35
5 37
5 38
5 39
5 41
5 42
5 43
5 44
5 45
5 46
5 49
5 51
5 55
5 56
5 57
5 59
5 60
5 61
5 63
5 66
5 68
5 69
5 71
5 72
5 74
5 75
5 76
5 78
5 81
5 83
5 86
5 87
5 90
5 92
5 93
5 94
5 95
5 96
5 97
6 7
6 8
6 9
6 10
6 11
6 12
6 13
6 15
6 18
6 19
6 20
6 21
6 23
6 26
6 27
6 28
6 32
6 34
6 35
6 36
6 37
6 40
6 41
6 42
6 43
6 46
6 50
6 51
6 52
6 53
6 54
6 56
6 57
6 58
6 60
6 61
6 62
6 63
6 67
6 69
6 70
6 71
6 73
6 74
6 77
6 78
6 79
6 80
6 88
6 90
6 91
6 92
6 94
6 97
6 98
6 99
7 8
7 9
7 10
7 12
7 14
7 18
7 20
7 21
7 22
7 26
7 27
7 29
7 30
7 32
7 33
7 35
7 37
7 38
7 40
7 41
7 44
7 45
7 46
7 47
7 48
7 49
7 52
7 53
7 57
7 58
7 60
7 63
7 65
7 69
7 71
7 72
7 76
7 77
7 78
7 79
7 80
7 82
7 85
7 86
7 87
7 88
7 89
7 90
7 91
7 93
7 94
7 95
7 96
7 97
8 9
8 10
8 12
8 13
8 15
8 16
8 17
8 20
8 21
8 22
8 23
8 24
8 26
8 27
8 28
8 31
8 32
8 34
8 36
8 38
8 40
8 41
8 42
8 45
8 47
8 50
8 51
8 52
8 53
8 55
8 56
8 59
8 62
8 63
8 66
8 67
8 68
8 69
8 70
8 71
8 72
8 73
8 74
8 76
8 77
8 78
8 79
8 80
8 83
8 84
8 85
8 86
8 87
8 88
8 89
8 91
8 94
8 95
8 96
8 98
9 10
9 12
9 13
9 16
9 18
9 19
9 20
9 22
9 23
9 26
9 27
9 28
9 30
9 32
9 33
9 36
9 38
9 40
9 43
9 44
9 46
9 47
9 48
9 49
9 50
9 51
9 53
9 55
9 56
9 57
9 59
9 60
9 61
9 62
9 64
9 65
9 66
9 68
9 70
9 72
9 73
9 74
9 75
9 77
9 79
9 80
9 81
9 83
9 84
9 85
9 88
9 89
9 90
9 91
9 93
9 97
9 98
9 99
10 13
10 14
10 15
10 17
10 19
10 22
10 25
10 27
10 28
10 30
10 32
10 36
10 38
10 39
10 42
10 45
10 46
10 48
10 49
10 50
10 51
10 52
10 54
10 57
10 58
10 60
10 61
10 64
10 65
10 67
10 69
10 70
10 71
10 72
10 73
10 74
10 75
10 76
10 77
10 80
10 81
10 83
10 84
10 86
10 88
10 89
10 95
10 96
10 97
10 98
11 12
11 16
11 17
11 18
11 19
11 21
11 22
11 26
11 27
11 28
11 29
11 30
11 31
11 32
11 33
11 34
11 35
11 36
11 37
11 38
11 41
11 46
11 48
11 49
11 50
11 57
11 58
11 60
11 63
11 64
11 65
11 66
11 68
11 69
11 71
11 72
11 73
11 74
11 81
11 82
11 83
11 84
11 85
11 89
11 90
11 91
11 92
11 94
11 95
11 97
11 98
11 99
12 13
12 15
12 16
12 17
12 19
12 20
12 21
12 23
12 24
12 27
12 28
12 29
12 30
12 33
12 34
12 36
12 37
12 38
12 42
12 43
12 44
12 46
12 48
12 50
12 51
12 52
12 53
12 54
12 55
12 56
12 61
12 65
12 66
12 69
12 70
12 71
12 73
12 75
12 76
12 78
12 79
12 80
12 81
12 84
12 85
12 88
12 89
12 90
12 91
12 94
12 97
12 99
13 15
13 16
13 17
13 18
13 19
13 20
13 21
13 22
13 25
13 26
13 27
13 29
13 31
13 32
13 34
13 35
13 37
13 38
13 39
13 42
13 43
13 44
13 45
13 46
13 47
13 49
13 50
13 51
13 53
13 54
13 55
13 57
13 58
13 59
13 60
13 61
13 62
13 63
13 64
13 65
13 68
13 69
13 70
13 71
13 75
13 78
13 79
13 80
13 81
13 82
13 83
13 85
13 87
13 89
13 91
13 93
13 94
13 99
14 16
14 17
14 20
14 21
14 22
14 23
14 24
14 29
14 30
14 31
14 32
14 33
14 34
14 35
14 36
14 37
14 39
14 40
14 41
14 42
14 45
14 46
14 47
14 48
14 50
14 51
14 53
14 54
14 55
14 57
14 58
14 60
14 62
14 69
14 70
14 73
14 75
14 78
14 81
14 82
14 83
14 84
14 85
14 86
14 88
14 89
14 92
14 93
14 94
14 97
14 98
15 16
15 17
15 20
15 21
15 22
15 25
15 26
15 29
15 31
15 33
15 34
15 36
15 38
15 39
15 42
15 43
15 45
15 46
15 49
15 50
15 52
15 55
15 56
15 57
15 58
15 59
15 60
15 65
15 68
15 71
15 72
15 75
15 77
15 79
15 80
15 82
15 83
15 84
15 85
15 88
15 89
15 91
15 92
15 93
15 98
15 99
16 21
16 22
16 24
16 25
16 28
16 29
16 30
16 31
16 33
16 35
16 36
16 37
16 38
16 39
16 41
16 42
16 44
16 48
16 49
16 51
16 53
16 54
16 56
16 57
16 58
16 59
16 62
16 63
16 65
16 67
16 71
16 76
16 77
16 79
16 81
16 82
16 83
16 84
16 86
16 87
16 91
16 92
16 93
16 95
16 96
16 98
16 99
17 19
17 21
17 23
17 24
17 25
17 26
17 27
17 28
17 32
17 34
17 35
17 36
17 38
17 40
17 42
17 44
17 45
17 46
17 47
17 49
17 50
17 51
17 54
17 55
17 59
17 61
17 62
17 64
17 65
17 67
17 68
17 69
17 71
17 72
17 75
17 76
17 77
17 78
17 79
17 81
17 82
17 87
17 88
17 92
17 93
17 94
17 97
17 98
17 99
18 21
18 22
18 23
18 24
18 26
18 29
18 30
18 31
18 33
18 36
18 37
18 38
18 39
18 41
18 42
18 43
18 44
18 45
18 46
18 47
18 48
18 51
18 52
18 53
18 55
18 57
18 60
18 61
18 62
18 64
18 67
18 68
18 69
18 71
18 72
18 77
18 78
18 81
18 82
18 83
18 86
18 87
18 89
18 90
18 91
18 92
18 94
18 95
18 97
18 98
19 21
19 22
19 29
19 30
19 32
19 33
19 34
19 35
19 36
19 39
19 40
19 41
19 44
19 45
19 49
19 51
19 52
19 53
19 54
19 56
19 59
19 61
19 62
19 63
19 64
19 68
19 69
19 71
19 73
19 76
19 77
19 79
19 80
19 81
19 82
19 83
19 84
19 85
19 87
19 89
19 90
19 93
19 94
19 96
20 22
20 23
20 25
20 26
20 27
20 28
20 30
20 31
20 34
20 35
20 39
20 41
20 44
20 45
20 48
20 49
20 51
20 54
20 55
20 56
20 57
20 59
20 61
20 62
20 64
20 65
20 68
20 70
20 72
20 73
20 74
20 75
20 78
20 79
20 81
20 83
20 85
20 86
20 90
20 91
20 93
20 94
20 95
20 96
20 97
20 99
21 23
21 28
21 30
21 32
21 33
21 34
21 35
21 36
21 40
21 43
21 44
21 45
21 46
21 48
21 49
21 51
21 54
21 55
21 56
21 58
21 59
21 60
21 61
21 65
21 68
21 70
21 74
21 75
21 77
21 78
21 80
21 81
21 82
21 83
21 84
21 86
21 87
21 88
21 89
21 90
21 93
21 94
21 98
22 23
22 25
22 26
22 27
22 29
22 32
22 33
22 35
22 36
22 37
22 38
22 39
22 41
22 42
22 43
22 44
22 46
22 48
22 49
22 50
22 51
22 52
22 56
22 58
22 60
22 61
22 64
22 65
22 66
22 67
22 72
22 73
22 74
22 79
22 81
22 82
22 84
22 85
22 86
22 87
22 88
22 91
22 93
22 94
22 96
22 97
22 98
22 99
23 24
23 25
23 26
23 28
23 29
23 32
23 33
23 36
23 37
23 39
23 40
23 41
23 45
23 46
23 47
23 52
23 53
23 56
23 57
23 60
23 61
23 62
23 65
23 66
23 68
23 69
23 70
23 71
23 72
23 74
23 76
23 77
23 78
23 81
23 83
23 86
23 87
23 88
23 89
23 91
23 94
23 97
23 98
24 25
24 27
24 30
24 32
24 33
24 34
24 35
24 36
24 38
24 39
24 40
24 42
24 43
24 44
24 45
24 46
24 47
24 49
24 50
24 51
24 54
24 57
24 58
24 60
24 63
24 64
24 65
24 68
24 70
24 71
24 72
24 74
24 75
24 76
24 77
24 78
24 79
24 80
24 82
24 83
24 88
24 90
24 92
24 94
24 97
24 99
25 26
25 28
25 29
25 30
25 31
25 32
25 34
25 35
25 36
25 37
25 38
25 40
25 43
25 44
25 45
25 48
25 49
25 50
25 51
25 53
25 54
25 55
25 56
25 57
25 65
25 68
25 69
25 70
25 71
25 74
25 75
25 76
25 77
25 78
25 80
25 82
25 84
25 86
25 87
25 88
25 90
25 91
25 92
25 94
25 96
25 97
25 98
25 99
26 27
26 29
26 31
26 32
26 33
26 34
26 35
26 37
26 38
26 41
26 42
26 43
26 45
26 46
26 47
26 49
26 50
26 51
26 54
26 57
26 60
26 62
26 63
26 64
26 68
26 69
26 71
26 72
26 76
26 78
26 81
26 82
26 83
26 84
26 90
26 91
26 92
26 93
26 94
26 95
26 96
26 97
26 98
26 99
27 31
27 32
27 34
27 36
27 38
27 39
27 40
27 41
27 43
27 44
27 45
27 46
27 47
27 50
27 53
27 59
27 61
27 64
27 67
27 68
27 70
27 74
27 75
27 79
27 80
27 81
27 82
27 83
27 85
27 86
27 87
27 88
27 90
27 92
27 94
27 95
28 29
28 31
28 32
28 33
28 35
28 36
28 37
28 38
28 39
28 42
28 43
28 44
28 45
28 46
28 47
28 48
28 49
28 50
28 51
28 53
28 55
28 56
28 57
28 58
28 59
28 60
28 61
28 62
28 63
28 64
28 65
28 67
28 68
28 69
28 70
28 71
28 72
28 74
28 76
28 77
28 79
28 81
28 82
28 84
28 88
28 89
28 90
28 91
28 95
28 96
28 97
28 99
29 31
29 32
29 35
29 36
29 38
29 39
29 42
29 44
29 45
29 47
29 48
29 49
29 50
29 52
29 55
29 57
29 58
29 60
29 61
29 64
29 65
29 66
29 68
29 73
29 75
29 78
29 79
29 82
29 84
29 85
29 86
29 88
29 91
29 94
29 97
29 99
30 32
30 33
30 34
30 35
30 36
30 37
30 43
30 44
30 46
30 47
30 49
30 50
30 53
30 54
30 57
30 58
30 59
30 60
30 62
30 64
30 65
30 69
30 70
30 71
30 72
30 73
30 74
30 75
30 78
30 79
30 80
30 81
30 82
30 85
30 86
30 87
30 91
30 92
30 94
30 95
30 97
30 99
31 33
31 34
31 35
31 38
31 44
31 46
31 47
31 48
31 49
31 51
31 53
31 54
31 56
31 58
31 60
31 61
31 62
31 63
31 65
31 67
31 71
31 72
31 74
31 75
31 77
31 78
31 79
31 80
31 81
31 82
31 86
31 88
31 89
31 90
31 91
31 92
31 94
31 95
31 96
31 99
32 33
32 36
32 39
32 41
32 42
32 44
32 45
32 46
32 48
32 50
32 53
32 58
32 61
32 62
32 68
32 69
32 70
32 72
32 73
32 74
32 75
32 76
32 77
32 78
32 80
32 81
32 82
32 83
32 85
32 89
32 90
32 91
32 92
32 93
32 94
32 95
32 98
33 35
33 36
33 37
33 38
33 39
33 40
33 42
33 43
33 44
33 49
33 51
33 52
33 54
33 56
33 57
33 62
33 63
33 64
33 65
33 67
33 69
33 70
33 72
33 73
33 78
33 79
33 83
33 84
33 85
33 88
33 89
33 90
33 91
33 94
33 95
33 97
33 98
33 99
34 37
34 39
34 40
34 41
34 42
34 43
34 46
34 47
34 49
34 50
34 51
34 53
34 54
34 56
34 57
34 59
34 60
34 63
34 65
34 66
34 67
34 68
34 69
34 72
34 74
34 76
34 77
34 78
34 79
34 80
34 81
34 82
34 84
34 86
34 89
34 90
34 91
34 92
34 93
34 95
34 97
34 99
35 36
35 39
35 40
35 42
35 44
35 47
35 51
35 55
35 57
35 58
35 59
35 60
35 61
35 63
35 64
35 65
35 66
35 67
35 69
35 70
35 71
35 73
35 75
35 78
35 80
35 81
35 82
35 83
35 86
35 87
35 88
35 90
35 91
35 92
35 93
35 94
35 95
35 96
35 99
36 37
36 38
36 39
36 40
36 41
36 43
36 44
36 45
36 47
36 50
36 52
36 53
36 54
36 55
36 56
36 57
36 58
36 60
36 62
36 64
36 66
36 67
36 71
36 74
36 75
36 76
36 78
36 82
36 85
36 89
36 94
36 96
36 97
36 99
37 38
37 41
37 43
37 44
37 46
37 48
37 51
37 52
37 55
37 64
37 65
37 66
37 68
37 69
37 70
37 77
37 79
37 80
37 83
37 85
37 86
37 87
37 88
37 90
37 91
37 92
37 94
37 96
37 99
38 39
38 41
38 42
38 44
38 45
38 46
38 47
38 49
38 50
38 51
38 52
38 53
38 54
38 55
38 59
38 60
38 64
38 67
38 72
38 73
38 74
38 76
38 77
38 78
38 79
38 81
38 83
38 87
38 88
38 89
38 90
38 91
38 92
38 93
38 95
38 98
39 40
39 43
39 45
39 46
39 47
39 48
39 50
39 51
39 52
39 53
39 54
39 55
39 56
39 58
39 61
39 62
39 63
39 67
39 68
39 69
39 73
39 74
39 75
39 78
39 79
39 80
39 81
39 82
39 84
39 86
39 87
39 92
39 93
39 94
39 95
39 96
39 98
39 99
40 41
40 42
40 44
40 46
40 47
40 50
40 51
40 53
40 55
40 56
40 60
40 61
40 64
40 65
40 69
40 72
40 73
40 74
40 75
40 80
40 82
40 83
40 84
40 85
40 87
40 88
40 91
40 92
40 93
40 94
40 97
40 99
41 42
41 43
41 45
41 46
41 47
41 48
41 51
41 55
41 56
41 61
41 63
41 64
41 66
41 67
41 68
41 69
41 71
41 72
41 73
41 74
41 75
41 76
41 77
41 78
41 79
41 80
41 87
41 88
41 90
41 91
41 93
41 94
41 95
42 43
42 44
42 46
42 47
42 48
42 50
42 51
42 52
42 53
42 54
42 55
42 56
42 58
42 59
42 60
42 62
42 63
42 64
42 65
42 67
42 69
42 71
42 73
42 74
42 75
42 77
42 78
42 80
42 81
42 85
42 87
42 89
42 90
42 91
42 92
42 94
42 95
42 96
42 97
42 98
42 99
43 44
43 46
43 47
43 49
43 52
43 53
43 54
43 55
43 57
43 58
43 59
43 61
43 62
43 64
43 65
43 66
43 67
43 70
43 71
43 72
43 73
43 74
43 77
43 78
43 79
43 80
43 81
43 83
43 84
43 85
43 87
43 89
43 90
43 92
43 93
43 94
43 96
43 97
43 98
43 99
44 45
44 49
44 52
44 55
44 56
44 58
44 59
44 60
44 61
44 62
44 63
44 65
44 67
44 70
44 74
44 75
44 76
44 77
44 79
44 81
44 82
44 83
44 89
44 91
44 92
44 93
44 94
44 96
44 97
44 98
44 99
45 48
45 49
45 54
45 56
45 58
45 59
45 60
45 61
45 62
45 65
45 66
45 67
45 70
45 71
45 72
45 74
45 75
45 76
45 77
45 80
45 81
45 82
45 83
45 84
45 85
45 86
45 88
45 89
45 91
45 95
45 96
45 97
45 98
45 99
46 47
46 49
46 50
46 51
46 52
46 53
46 54
46 55
46 56
46 57
46 58
46 59
46 61
46 63
46 64
46 65
46 66
46 69
46 70
46 72
46 74
46 76
46 77
46 79
46 81
46 83
46 84
46 85
46 88
46 89
46 90
46 91
46 93
46 94
46 98
46 99
47 48
47 50
47 51
47 52
47 53
47 55
47 58
47 59
47 60
47 61
47 62
47 63
47 64
47 69
47 70
47 72
47 73
47 74
47 75
47 77
47 78
47 80
47 81
47 82
47 83
47 84
47 85
47 86
47 87
47 88
47 89
47 90
47 92
47 94
47 96
47 98
47 99
48 50
48 51
48 53
48 54
48 55
48 56
48 57
48 58
48 59
48 62
48 63
48 64
48 65
48 66
48 68
48 69
48 70
48 71
48 72
48 74
48 76
48 77
48 78
48 79
48 81
48 82
48 83
48 84
48 86
48 87
48 88
48 90
48 92
48 95
48 96
48 97
48 98
48 99
49 52
49 54
49 55
49 57
49 58
49 59
49 60
49 62
49 63
49 64
49 65
49 66
49 67
49 68
49 69
49 72
49 74
49 77
49 78
49 80
49 82
49 84
49 85
49 86
49 87
49 91
49 92
49 93
49 95
49 97
49 98
50 51
50 54
50 55
50 57
50 59
50 60
50 61
50 62
50 66
50 68
50 69
50 71
50 72
50 74
50 75
50 77
50 80
50 81
50 82
50 83
50 84
50 85
50 86
50 87
50 88
50 90
50 92
50 94
50 96
50 97
50 99
51 56
51 58
51 59
51 60
51 61
51 62
51 67
51 68
51 70
51 71
51 73
51 74
51 76
51 77
51 81
51 82
51 85
51 86
51 87
51 89
51 90
51 92
51 93
51 94
51 95
51 96
51 97
51 98
52 53
52 54
52 55
52 58
52 61
52 62
52 63
52 67
52 68
52 69
52 70
52 71
52 72
52 73
52 74
52 76
52 77
52 79
52 80
52 83
52 84
52 85
52 90
52 94
52 97
53 54
53 55
53 56
53 57
53 58
53 59
53 61
53 62
53 64
53 66
53 67
53 68
53 69
53 72
53 74
53 75
53 76
53 80
53 83
53 84
53 85
53 87
53 88
53 91
53 95
53 97
53 98
53 99
54 59
54 62
54 64
54 65
54 66
54 68
54 70
54 71
54 75
54 76
54 77
54 79
54 80
54 82
54 84
54 86
54 87
54 88
54 89
54 91
54 92
54 94
54 95
54 96
55 56
55 58
55 59
55 60
55 62
55 63
55 64
55 65
55 67
55 69
55 71
55 72
55 74
55 75
55 76
55 77
55 80
55 81
55 83
55 85
55 86
55 87
55 93
55 94
55 97
55 98
56 57
56 59
56 60
56 61
56 62
56 63
56 66
56 67
56 70
56 73
56 76
56 79
56 80
56 81
56 82
56 84
56 85
56 86
56 88
56 89
56 90
56 91
56 94
56 96
56 97
57 58
57 61
57 62
57 63
57 65
57 66
57 67
57 68
57 69
57 74
57 75
57 76
57 77
57 78
57 79
57 80
57 81
57 83
57 84
57 86
57 88
57 91
57 92
57 93
57 96
57 97
57 98
58 59
58 60
58 61
58 62
58 65
58 66
58 67
58 68
58 70
58 73
58 74
58 75
58 77
58 79
58 80
58 83
58 85
58 86
58 87
58 88
58 89
58 90
58 91
58 94
58 96
58 97
58 99
59 60
59 63
59 64
59 65
59 66
59 67
59 70
59 71
59 73
59 74
59 75
59 77
59 78
59 79
59 82
59 84
59 85
59 86
59 87
59 88
59 89
59 94
59 95
59 96
59 97
59 98
59 99
60 62
60 63
60 64
60 65
60 66
60 69
60 70
60 71
60 72
60 73
60 75
60 77
60 80
60 81
60 83
60 84
60 85
60 86
60 87
60 88
60 89
60 90
60 91
60 93
60 95
60 97
60 98
61 62
61 66
61 67
61 69
61 73
61 75
61 76
61 77
61 79
61 80
61 81
61 82
61 84
61 85
61 88
61 92
61 94
61 95
61 96
61 98
61 99
62 64
62 65
62 66
62 67
62 69
62 71
62 74
62 75
62 76
62 78
62 79
62 81
62 82
62 84
62 85
62 86
62 89
62 90
62 92
62 93
62 94
62 95
62 96
62 97
62 99
63 65
63 66
63 67
63 68
63 69
63 70
63 71
63 72
63 74
63 76
63 77
63 78
63 79
63 81
63 83
63 84
63 86
63 87
63 88
63 89
63 90
63 91
63 92
63 93
63 95
63 96
63 97
63 99
64 65
64 69
64 73
64 74
64 79
64 80
64 82
64 83
64 85
64 88
64 89
64 90
64 91
64 93
64 95
64 97
64 98
64 99
65 66
65 68
65 70
65 71
65 72
65 74
65 76
65 77
65 78
65 79
65 80
65 82
65 83
65 84
65 85
65 86
65 87
65 89
65 90
65 91
65 93
65 95
65 96
65 98
65 99
66 67
66 68
66 72
66 73
66 75
66 78
66 79
66 80
66 83
66 84
66 87
66 90
66 94
66 96
66 97
66 98
66 99
67 71
67 72
67 73
67 74
67 76
67 77
67 78
67 79
67 83
67 85
67 86
67 87
67 88
67 92
67 94
67 95
67 97
68 71
68 73
68 74
68 76
68 77
68 78
68 80
68 81
68 82
68 83
68 84
68 86
68 88
68 90
68 92
68 95
68 96
68 97
69 71
69 76
69 77
69 78
69 79
69 80
69 81
69 85
69 87
69 88
69 90
69 91
69 92
69 93
69 94
69 95
69 97
69 98
69 99
70 72
70 74
70 75
70 77
70 78
70 80
70 81
70 82
70 83
70 85
70 86
70 87
70 88
70 89
70 91
70 94
70 96
70 97
70 98
71 72
71 73
71 75
71 76
71 77
71 79
71 80
71 81
71 83
71 84
71 85
71 87
71 90
71 91
71 92
71 93
71 94
71 95
71 96
71 97
72 73
72 74
72 75
72 76
72 80
72 81
72 83
72 86
72 87
72 88
72 89
72 90
72 92
72 93
72 94
72 95
72 96
73 74
73 76
73 77
73 79
73 81
73 82
73 83
73 84
73 86
73 91
73 92
73 93
73 94
73 95
73 96
73 97
74 76
74 77
74 78
74 79
74 81
74 83
74 84
74 85
74 86
74 87
74 89
74 92
74 93
74 95
74 96
74 97
75 76
75 77
75 78
75 79
75 80
75 81
75 83
75 85
75 86
75 87
75 88
75 91
75 92
75 95
75 99
76 80
76 82
76 85
76 86
76 87
76 88
76 92
76 95
76 96
76 99
77 78
77 80
77 81
77 85
77 88
77 89
77 90
77 93
77 94
77 95
77 97
77 98
78 79
78 80
78 81
78 82
78 84
78 85
78 86
78 87
78 95
78 96
78 98
78 99
79 80
79 83
79 86
79 87
79 89
79 90
79 91
79 92
79 94
79 96
79 97
80 81
80 84
80 86
80 87
80 88
80 89
80 90
80 91
80 94
80 95
80 97
80 99
81 82
81 83
81 87
81 89
81 92
81 93
81 95
81 97
81 99
82 83
82 84
82 85
82 86
82 87
82 90
82 91
82 93
82 94
82 95
82 99
83 85
83 86
83 90
83 93
83 94
83 95
83 96
83 99
84 85
84 86
84 88
84 89
84 90
84 91
84 92
84 93
84 95
84 99
85 86
85 87
85 89
85 90
85 91
85 94
85 95
85 97
86 89
86 91
86 93
86 95
86 96
86 97
86 98
87 90
87 92
87 93
87 94
87 96
87 97
87 98
87 99
88 91
88 95
88 96
88 98
88 99
89 91
89 95
89 96
89 97
89 98
90 91
90 93
90 95
90 96
90 98
91 92
91 95
91 96
92 93
92 95
92 96
92 97
92 98
92 99
93 95
93 97
93 98
94 95
94 96
94 98
95 97
96 97
96 99
97 99
98 99
71 2 96 37 67 16 39 51 22 13 93 64 33 89 14 36 62 50 7 34 29 24 99 42 80 40 92 8 3 31
65 30 63 48 60 87 84 97 68 72 27 1 47 70 53 94 58 56 10 98 23 26 21 74 78 41 57 77 28 20
90 17 81 66 52 45 43 19 95 25 82 18 46 75 79 76 32 49 11 0 69 61 38 6 15 35 88 12 4 44
54 59 91 5 86 73 9 55 85 83
